[2018-03-06T18:32:39Z, INFO] Initialization of items.
[2018-03-06T18:32:39Z, INFO] Initialization of Item.
[2018-03-06T18:32:39Z, INFO] Initialization of patterns.
[2018-03-06T18:32:39Z, INFO] Initialization of Pattern.
[2018-03-06T18:32:39Z, INFO] Initialization of slices.
[2018-03-06T18:32:39Z, INFO] Initialization of Slice.
[2018-03-06T18:32:39Z, INFO] Initialization of cost.
[2018-03-06T18:32:39Z, INFO] Initialization of rolls.
[2018-03-06T18:32:39Z, INFO] Initialization of ctOrder.
[2018-03-06T18:32:39Z, WARN] Effective number of workers to be used for solve has been updated to: '10' (original value was: '0')
[2018-03-06T18:32:39Z, INFO] CPXPARAM_Threads                                 10
[2018-03-06T18:32:39Z, INFO] CPXPARAM_MIP_Strategy_CallbackReducedLP          0
[2018-03-06T18:32:39Z, INFO] Tried aggregator 1 time.
[2018-03-06T18:32:39Z, INFO] LP Presolve eliminated 1 rows and 2 columns.
[2018-03-06T18:32:39Z, INFO] All rows and columns eliminated.
[2018-03-06T18:32:39Z, INFO] Presolve time = 0.00 sec. (0.00 ticks)
[2018-03-06T18:32:39Z, INFO] use =  [364 0]
[2018-03-06T18:32:39Z, INFO] Use of pattern  <0 1> is : 364
[2018-03-06T18:32:39Z, INFO] Use of pattern  <1 1> is : 0
[2018-03-06T18:32:39Z, INFO] Initialization of duals.
[2018-03-06T18:32:39Z, INFO] Initialization of Dual.
[2018-03-06T18:32:39Z, INFO] Initialization of use.
[2018-03-06T18:32:39Z, INFO] Initialization of Usage.
[2018-03-06T18:32:39Z, INFO] Initialization of objective.
[2018-03-06T18:32:39Z, INFO] Initialization of Objective.
[2018-03-06T18:32:39Z, INFO] Total time spent in post processing: 4 msecs.
[2018-03-06T18:32:39Z, INFO] Solve finished with status: OPTIMAL_SOLUTION.
